NAME : 10_3_3_3_(34).dat
COMMENT : Henke, Speranza, Wäscher, 2015
TYPE : MCVRP
DIMENSION : 11
EDGE_WEIGHT_TYPE : DISTANCE_MATRIX
CAPACITY : 1000
VEHICLES : 2
PRODUCT TYPES : 3
COMPARTMENTS : 3
NODE_COORD_SECTION
1 50 50
2 46.5 81.69
3 26.17 12.69
4 20.89 7.73
5 4.87 83.64
6 20.15 76.48
7 25.25 5.06
8 19.29 87.91
9 35.2 4.44
10 81.6 0.09
11 72.32 97.31
DEMAND_SECTION
1 0 0 0
2 55 72 41
3 23 5 16
4 84 58 2
5 61 14 50
6 104 51 31
7 76 15 4
8 19 12 7
9 63 50 33
10 93 50 36
11 80 68 47
DEPOT_SECTION
1
EOF